p tw 81 119
1 2
1 10
10 11
19 20
19 28
28 29
28 37
37 38
37 46
46 47
46 55
64 65
64 73
73 74
2 11
11 12
11 20
20 29
29 38
38 39
38 47
47 48
56 57
56 65
65 66
65 74
12 13
12 21
21 22
21 30
30 31
30 39
39 40
48 49
48 57
57 58
57 66
66 67
66 75
75 76
4 5
4 13
13 14
13 22
22 31
31 32
31 40
40 41
40 49
49 50
49 58
58 59
58 67
67 68
5 14
14 15
14 23
23 24
23 32
32 33
32 41
41 42
41 50
50 51
50 59
59 60
59 68
68 69
68 77
77 78
6 7
6 15
15 16
15 24
24 25
24 33
33 34
33 42
42 43
42 51
51 52
51 60
60 69
69 70
69 78
78 79
7 8
7 16
16 17
25 26
25 34
34 35
34 43
43 52
52 53
52 61
61 62
61 70
70 71
79 80
8 9
8 17
17 18
26 35
35 36
35 44
44 53
53 54
53 62
62 63
71 72
71 80
80 81
9 18
18 27
36 45
45 54
54 63
72 81
